n = 80;
capacity = 100;
size = [80, 80, 80, 79, 79, 78, 77, 77, 77, 74, 73, 72, 72, 72, 71, 70, 70, 69, 67, 66, 66, 66, 65, 63, 62, 62, 61, 59, 59, 57, 56, 55, 55, 54, 54, 54, 53, 52, 52, 50, 50, 49, 49, 49, 48, 48, 47, 47, 45, 42, 41, 41, 40, 39, 38, 37, 36, 35, 35, 34, 34, 33, 32, 32, 29, 28, 28, 28, 27, 27, 26, 26, 25, 25, 25, 23, 23, 23, 22, 21];
